sets/C/cp-n34-kk.vrp
NAME : (null)
COMMENT : (null)
TYPE : CVRP
DIMENSION : 34
EDGE_WEIGHT_TYPE : EUC_2D
CAPACITY : 87
NODE_COORD_SECTION
 1   3  15
 2  27  10
 3  33  17
 4  29  28
 5  20  24
 6   4  25
 7   1  25
 8  19  23
 9   9  12
10  23  27
11   7   9
12  27  30
13   9   2
14  13   0
15   5  14
16  19  15
17   1   3
18  27  32
19  22  28
20  10  21
21  33  31
22  28  25
23  30  10
24  11   7
25  33  33
26  13  25
27  12  10
28  24  19
29  14  24
30  17   1
31  29  32
32  15  33
33  22   4
34  28   7
DEMAND_SECTION
 1   0
 2  11
 3  22
 4  19
 5  17
 6  14
 7  20
 8   5
 9   4
10   4
11   4
12   3
13   1
14  21
15  15
16   6
17  20
18   4
19   4
20  13
21  11
22  24
23   5
24  13
25  16
26  24
27  19
28  23
29   6
30  10
31  14
32   1
33  16
34  16
DEPOT_SECTION
 1
-1
EOF