sets/C/cp-n34-kk.opt
Route #1: 15 1 22 33 32 26 8
Route #2: 14 10 23 29 13 12 16
Route #3: 27 2 21 4
Route #4: 28 31 17 30 24 20 3 11 18 9 7
Route #5: 6 5 25 19
cost 292
